PROBLEM NAME: 	d493-TTP
KNAPSACK DATA TYPE: uncorrelated
DIMENSION:	493
NUMBER OF ITEMS: 	492
CAPACITY OF KNAPSACK: 	44332
MIN SPEED: 	0.1
MAX SPEED: 	1
RENTING RATIO: 	1.06
EDGE_WEIGHT_TYPE:	CEIL_2D
NODE_COORD_SECTION	(INDEX, X, Y): 
1	0.00000e+00	0.00000e+00
2	1.11630e+03	1.55520e+03
3	1.35760e+03	1.47900e+03
4	1.14810e+03	1.77110e+03
5	1.18620e+03	1.79650e+03
6	1.20520e+03	1.88540e+03
7	1.23700e+03	1.99340e+03
8	1.30050e+03	2.00610e+03
9	1.16080e+03	2.02510e+03
10	1.17350e+03	2.03780e+03
11	1.22430e+03	2.05050e+03
12	1.35130e+03	2.24100e+03
13	1.73230e+03	2.13310e+03
14	1.74500e+03	2.19020e+03
15	1.76400e+03	2.29180e+03
16	1.76400e+03	2.34260e+03
17	1.73230e+03	2.39340e+03
18	1.74500e+03	2.41880e+03
19	1.64970e+03	2.43150e+03
20	1.75770e+03	2.52040e+03
21	2.29740e+03	1.77110e+03
22	2.21490e+03	1.42820e+03
23	2.22760e+03	1.33930e+03
24	2.18310e+03	1.32030e+03
25	2.61490e+03	1.11070e+03
26	2.50700e+03	1.16150e+03
27	2.34820e+03	9.52000e+02
28	2.22120e+03	1.00910e+03
29	2.20850e+03	1.08530e+03
30	2.20220e+03	1.13610e+03
31	2.21490e+03	1.17420e+03
32	2.02440e+03	1.12340e+03
33	2.04340e+03	1.30120e+03
34	1.94820e+03	1.30760e+03
35	1.94180e+03	1.39010e+03
36	1.84660e+03	1.41550e+03
37	1.75770e+03	1.36470e+03
38	1.80210e+03	1.35200e+03
39	1.83390e+03	1.26310e+03
40	1.73230e+03	1.25040e+03
41	2.04340e+03	1.58060e+03
42	2.04980e+03	1.74570e+03
43	1.99900e+03	1.80290e+03
44	1.96090e+03	1.81560e+03
45	2.05610e+03	1.82190e+03
46	2.01170e+03	1.82830e+03
47	2.04340e+03	1.85370e+03
48	1.84660e+03	1.78380e+03
49	1.82120e+03	1.82830e+03
50	1.84660e+03	1.86640e+03
51	1.81480e+03	1.65050e+03
52	1.66880e+03	1.80920e+03
53	1.85930e+03	2.16480e+03
54	1.98630e+03	2.13310e+03
55	2.01170e+03	2.17750e+03
56	1.94820e+03	2.19660e+03
57	1.89100e+03	2.24740e+03
58	2.01170e+03	2.27280e+03
59	2.03710e+03	2.30450e+03
60	2.05610e+03	2.35530e+03
61	1.89740e+03	2.41250e+03
62	1.89740e+03	2.45690e+03
63	1.91640e+03	2.46960e+03
64	2.05610e+03	2.46960e+03
65	2.15770e+03	2.13940e+03
66	1.63700e+03	2.69820e+03
67	1.70690e+03	2.70460e+03
68	1.76400e+03	2.74900e+03
69	1.70690e+03	2.77440e+03
70	1.76400e+03	2.79980e+03
71	1.87200e+03	3.06650e+03
72	1.85290e+03	3.00300e+03
73	1.87200e+03	2.99670e+03
74	1.89740e+03	2.99670e+03
75	2.21490e+03	2.97130e+03
76	2.19580e+03	2.93950e+03
77	2.24660e+03	2.88870e+03
78	1.89100e+03	2.86970e+03
79	2.20220e+03	2.84430e+03
80	1.90370e+03	2.81890e+03
81	1.87200e+03	2.81890e+03
82	2.01170e+03	2.76170e+03
83	1.90370e+03	2.69820e+03
84	1.95450e+03	2.58390e+03
85	2.05610e+03	2.57760e+03
86	2.09420e+03	2.56490e+03
87	2.19580e+03	2.47600e+03
88	2.58950e+03	2.99030e+03
89	2.60860e+03	2.99030e+03
90	2.50700e+03	3.00300e+03
91	2.89430e+03	3.04750e+03
92	2.89430e+03	3.00300e+03
93	2.90700e+03	2.97130e+03
94	3.02770e+03	3.04750e+03
95	2.79270e+03	2.81250e+03
96	2.22760e+03	2.81250e+03
97	2.58320e+03	2.79980e+03
98	2.59590e+03	2.77440e+03
99	2.50700e+03	2.77440e+03
100	2.72290e+03	2.75540e+03
101	2.61490e+03	2.74900e+03
102	2.88800e+03	2.73000e+03
103	3.21180e+03	2.73000e+03
104	3.14200e+03	2.71730e+03
105	2.75460e+03	2.69820e+03
106	2.45620e+03	2.69820e+03
107	2.57050e+03	2.62200e+03
108	2.72290e+03	2.62200e+03
109	3.36420e+03	2.62200e+03
110	2.90070e+03	2.61570e+03
111	3.13560e+03	2.60300e+03
112	2.71020e+03	2.59660e+03
113	2.71650e+03	2.54580e+03
114	2.88800e+03	2.53310e+03
115	2.84990e+03	2.51410e+03
116	2.29740e+03	2.51410e+03
117	2.60860e+03	2.49500e+03
118	3.22450e+03	2.48870e+03
119	2.69110e+03	2.47600e+03
120	2.87530e+03	2.43790e+03
121	2.50060e+03	2.41880e+03
122	2.43080e+03	2.39980e+03
123	2.87530e+03	2.39980e+03
124	3.12930e+03	2.36800e+03
125	2.58320e+03	2.36800e+03
126	2.49430e+03	2.36800e+03
127	2.78000e+03	2.36170e+03
128	2.33550e+03	2.35530e+03
129	2.61490e+03	2.31720e+03
130	2.92610e+03	2.30450e+03
131	2.80540e+03	2.29180e+03
132	2.58320e+03	2.29180e+03
133	2.82450e+03	2.28550e+03
134	2.86260e+03	2.27910e+03
135	2.79910e+03	2.26010e+03
136	2.69110e+03	2.26010e+03
137	2.75460e+03	2.25370e+03
138	2.91340e+03	2.25370e+03
139	2.34820e+03	2.24100e+03
140	2.90700e+03	2.23470e+03
141	3.13560e+03	2.23470e+03
142	2.92610e+03	2.22830e+03
143	3.43410e+03	2.20290e+03
144	2.88160e+03	2.19020e+03
145	2.60220e+03	2.19020e+03
146	2.71020e+03	2.16480e+03
147	2.79270e+03	2.14580e+03
148	2.82450e+03	2.13310e+03
149	2.42440e+03	2.10770e+03
150	2.86890e+03	2.10130e+03
151	3.43410e+03	2.10130e+03
152	2.61490e+03	2.08860e+03
153	3.07850e+03	2.08230e+03
154	2.58950e+03	2.07590e+03
155	2.48790e+03	2.06320e+03
156	2.73560e+03	2.06320e+03
157	3.44680e+03	2.04420e+03
158	3.35150e+03	2.03150e+03
159	2.62760e+03	2.01880e+03
160	2.69750e+03	2.00610e+03
161	2.48790e+03	1.99340e+03
162	2.68480e+03	1.97430e+03
163	2.46250e+03	1.96800e+03
164	3.13560e+03	1.96800e+03
165	3.39600e+03	1.96800e+03
166	2.74830e+03	1.96160e+03
167	2.72290e+03	1.96160e+03
168	3.23090e+03	1.95530e+03
169	2.97050e+03	1.94260e+03
170	2.47520e+03	1.93620e+03
171	2.51330e+03	1.92350e+03
172	2.92610e+03	1.91720e+03
173	2.49430e+03	1.91080e+03
174	2.61490e+03	1.90450e+03
175	2.51970e+03	1.89180e+03
176	2.58950e+03	1.89180e+03
177	3.40870e+03	1.89180e+03
178	3.64360e+03	1.89180e+03
179	2.78640e+03	1.88540e+03
180	2.65940e+03	1.88540e+03
181	2.49430e+03	1.87910e+03
182	2.95780e+03	1.87910e+03
183	3.45950e+03	1.87910e+03
184	3.05310e+03	1.86640e+03
185	2.77370e+03	1.86640e+03
186	2.71020e+03	1.86640e+03
187	3.23720e+03	1.85370e+03
188	3.32610e+03	1.85370e+03
189	2.73560e+03	1.84730e+03
190	2.49430e+03	1.83460e+03
191	3.26900e+03	1.83460e+03
192	3.30710e+03	1.83460e+03
193	3.36420e+03	1.83460e+03
194	2.67210e+03	1.82830e+03
195	3.35150e+03	1.82190e+03
196	3.47220e+03	1.82190e+03
197	2.86890e+03	1.81560e+03
198	2.81180e+03	1.80920e+03
199	3.35150e+03	1.80290e+03
200	3.29440e+03	1.79650e+03
201	2.54510e+03	1.79650e+03
202	3.11020e+03	1.77750e+03
203	3.16100e+03	1.77750e+03
204	3.28170e+03	1.77750e+03
205	3.33880e+03	1.75840e+03
206	2.99590e+03	1.75840e+03
207	3.19910e+03	1.72030e+03
208	3.00230e+03	1.72030e+03
209	2.63400e+03	1.72030e+03
210	2.50700e+03	1.70760e+03
211	2.96420e+03	1.70760e+03
212	3.05940e+03	1.70760e+03
213	3.09750e+03	1.70760e+03
214	3.64360e+03	1.70760e+03
215	2.80540e+03	1.70130e+03
216	2.58320e+03	1.69490e+03
217	3.07850e+03	1.69490e+03
218	2.89430e+03	1.68860e+03
219	3.14830e+03	1.68220e+03
220	3.21820e+03	1.66320e+03
221	3.19910e+03	1.66320e+03
222	2.72920e+03	1.66320e+03
223	2.95150e+03	1.65050e+03
224	2.43080e+03	1.64410e+03
225	2.50700e+03	1.63140e+03
226	3.59920e+03	1.63140e+03
227	3.13560e+03	1.62510e+03
228	3.07850e+03	1.62510e+03
229	3.05940e+03	1.62510e+03
230	2.77370e+03	1.62510e+03
231	2.91340e+03	1.61870e+03
232	3.30710e+03	1.61870e+03
233	3.13560e+03	1.60600e+03
234	3.01500e+03	1.60600e+03
235	2.42440e+03	1.59970e+03
236	2.83080e+03	1.59330e+03
237	3.29440e+03	1.59330e+03
238	3.12930e+03	1.58060e+03
239	3.37690e+03	1.56790e+03
240	2.61490e+03	1.56790e+03
241	2.93240e+03	1.54890e+03
242	3.04620e+03	1.54730e+03
243	3.07220e+03	1.54730e+03
244	3.09820e+03	1.54730e+03
245	3.12420e+03	1.54730e+03
246	3.15020e+03	1.54730e+03
247	3.17620e+03	1.54730e+03
248	3.20220e+03	1.54730e+03
249	3.22820e+03	1.54730e+03
250	3.25420e+03	1.54730e+03
251	3.28020e+03	1.54730e+03
252	3.30620e+03	1.54730e+03
253	3.33220e+03	1.54730e+03
254	3.35820e+03	1.54730e+03
255	2.72290e+03	1.53620e+03
256	3.06570e+03	1.52460e+03
257	3.11120e+03	1.52460e+03
258	3.13720e+03	1.52460e+03
259	3.16320e+03	1.52460e+03
260	3.18920e+03	1.52460e+03
261	3.21520e+03	1.52460e+03
262	3.24120e+03	1.52460e+03
263	3.26720e+03	1.52460e+03
264	3.29320e+03	1.52460e+03
265	3.34520e+03	1.52460e+03
266	2.43710e+03	1.52350e+03
267	2.96420e+03	1.51080e+03
268	2.74190e+03	1.50440e+03
269	2.43080e+03	1.50440e+03
270	3.41350e+03	1.49860e+03
271	2.99750e+03	1.49210e+03
272	2.82450e+03	1.48540e+03
273	3.02020e+03	1.47910e+03
274	3.39070e+03	1.47910e+03
275	3.41350e+03	1.47260e+03
276	2.83720e+03	1.46630e+03
277	2.60860e+03	1.46630e+03
278	2.99750e+03	1.46610e+03
279	3.10470e+03	1.46610e+03
280	3.13070e+03	1.46610e+03
281	3.15670e+03	1.46610e+03
282	3.18270e+03	1.46610e+03
283	3.20870e+03	1.46610e+03
284	3.23470e+03	1.46610e+03
285	3.26070e+03	1.46610e+03
286	3.28670e+03	1.46610e+03
287	3.31270e+03	1.46610e+03
288	3.41350e+03	1.44660e+03
289	3.07870e+03	1.44660e+03
290	3.11770e+03	1.44330e+03
291	3.14370e+03	1.44330e+03
292	3.16970e+03	1.44330e+03
293	3.19570e+03	1.44330e+03
294	3.22170e+03	1.44330e+03
295	3.24770e+03	1.44330e+03
296	3.27370e+03	1.44330e+03
297	2.90070e+03	1.44090e+03
298	2.69110e+03	1.44090e+03
299	2.99750e+03	1.44010e+03
300	3.33220e+03	1.44010e+03
301	2.43710e+03	1.43460e+03
302	3.39070e+03	1.43360e+03
303	3.30950e+03	1.42710e+03
304	3.02020e+03	1.42710e+03
305	2.58320e+03	1.42190e+03
306	3.07870e+03	1.42060e+03
307	3.41350e+03	1.42060e+03
308	3.28350e+03	1.41730e+03
309	3.12750e+03	1.41730e+03
310	2.99750e+03	1.41410e+03
311	3.33220e+03	1.41410e+03
312	3.23720e+03	1.40920e+03
313	3.19910e+03	1.40920e+03
314	3.10150e+03	1.40760e+03
315	3.39070e+03	1.40760e+03
316	3.44040e+03	1.40280e+03
317	2.95150e+03	1.40280e+03
318	3.02020e+03	1.40110e+03
319	3.30950e+03	1.40110e+03
320	3.41350e+03	1.39460e+03
321	3.07870e+03	1.39460e+03
322	3.16100e+03	1.39010e+03
323	2.99750e+03	1.38810e+03
324	3.33220e+03	1.38810e+03
325	2.93880e+03	1.38380e+03
326	2.87530e+03	1.38380e+03
327	3.10150e+03	1.38160e+03
328	3.39070e+03	1.38160e+03
329	3.13990e+03	1.37540e+03
330	3.02020e+03	1.37510e+03
331	3.30950e+03	1.37510e+03
332	3.41350e+03	1.36860e+03
333	3.07870e+03	1.36860e+03
334	2.79910e+03	1.36470e+03
335	3.59920e+03	1.36470e+03
336	3.33220e+03	1.36210e+03
337	2.99750e+03	1.36210e+03
338	3.10150e+03	1.35560e+03
339	3.39070e+03	1.35560e+03
340	3.26900e+03	1.35200e+03
341	2.91970e+03	1.35200e+03
342	2.83720e+03	1.35200e+03
343	3.02020e+03	1.34910e+03
344	3.30950e+03	1.34910e+03
345	2.87530e+03	1.34570e+03
346	3.07870e+03	1.34260e+03
347	3.41350e+03	1.34260e+03
348	3.48490e+03	1.33930e+03
349	2.97050e+03	1.33930e+03
350	2.99750e+03	1.33610e+03
351	3.33220e+03	1.33610e+03
352	2.91340e+03	1.33300e+03
353	3.10150e+03	1.32960e+03
354	3.39070e+03	1.32960e+03
355	3.30950e+03	1.32310e+03
356	3.24360e+03	1.32310e+03
357	3.02020e+03	1.32310e+03
358	2.95780e+03	1.32030e+03
359	3.15470e+03	1.32030e+03
360	3.07870e+03	1.31660e+03
361	3.41350e+03	1.31660e+03
362	3.61190e+03	1.31390e+03
363	3.33220e+03	1.31010e+03
364	2.99750e+03	1.31010e+03
365	3.10150e+03	1.30360e+03
366	3.39070e+03	1.30360e+03
367	3.30950e+03	1.29710e+03
368	3.02020e+03	1.29710e+03
369	2.84990e+03	1.29490e+03
370	2.87530e+03	1.29490e+03
371	2.90070e+03	1.29490e+03
372	3.54200e+03	1.29490e+03
373	3.41350e+03	1.29060e+03
374	3.07870e+03	1.29060e+03
375	3.17370e+03	1.28850e+03
376	3.33220e+03	1.28410e+03
377	2.99750e+03	1.28410e+03
378	3.10150e+03	1.27760e+03
379	3.39070e+03	1.27760e+03
380	3.30950e+03	1.27110e+03
381	3.02020e+03	1.27110e+03
382	2.76730e+03	1.26950e+03
383	3.07870e+03	1.26460e+03
384	3.41350e+03	1.26460e+03
385	2.60220e+03	1.26310e+03
386	3.12750e+03	1.26130e+03
387	3.28350e+03	1.26130e+03
388	3.33220e+03	1.25810e+03
389	2.99750e+03	1.25810e+03
390	2.88160e+03	1.25680e+03
391	2.79270e+03	1.25680e+03
392	2.55780e+03	1.25680e+03
393	3.10150e+03	1.25160e+03
394	3.39070e+03	1.25160e+03
395	3.47850e+03	1.25040e+03
396	3.02020e+03	1.24510e+03
397	2.91970e+03	1.24410e+03
398	2.81810e+03	1.24410e+03
399	2.51970e+03	1.24410e+03
400	3.07870e+03	1.23860e+03
401	3.41350e+03	1.23860e+03
402	3.29320e+03	1.23530e+03
403	3.26720e+03	1.23530e+03
404	3.24120e+03	1.23530e+03
405	3.21520e+03	1.23530e+03
406	3.18920e+03	1.23530e+03
407	3.16320e+03	1.23530e+03
408	3.13720e+03	1.23530e+03
409	2.99750e+03	1.23210e+03
410	3.33220e+03	1.23210e+03
411	2.88160e+03	1.22500e+03
412	3.09820e+03	1.21260e+03
413	3.12420e+03	1.21260e+03
414	3.15020e+03	1.21260e+03
415	3.17620e+03	1.21260e+03
416	3.20220e+03	1.21260e+03
417	3.22820e+03	1.21260e+03
418	3.25420e+03	1.21260e+03
419	3.28020e+03	1.21260e+03
420	3.30620e+03	1.21260e+03
421	3.41350e+03	1.21260e+03
422	2.58950e+03	1.21230e+03
423	2.57050e+03	1.21230e+03
424	2.99750e+03	1.20610e+03
425	3.02020e+03	1.19960e+03
426	3.39070e+03	1.19960e+03
427	3.45950e+03	1.19960e+03
428	3.48490e+03	1.19960e+03
429	2.65940e+03	1.19330e+03
430	3.41350e+03	1.18660e+03
431	2.93880e+03	1.18040e+03
432	2.99750e+03	1.18010e+03
433	3.06570e+03	1.15410e+03
434	3.11770e+03	1.15410e+03
435	3.14370e+03	1.15410e+03
436	3.16970e+03	1.15410e+03
437	3.19570e+03	1.15410e+03
438	3.22170e+03	1.15410e+03
439	3.24770e+03	1.15410e+03
440	3.27370e+03	1.15410e+03
441	3.29970e+03	1.15410e+03
442	3.34520e+03	1.15410e+03
443	2.92610e+03	1.14250e+03
444	3.05270e+03	1.13130e+03
445	3.07870e+03	1.13130e+03
446	3.10470e+03	1.13130e+03
447	3.13070e+03	1.13130e+03
448	3.15670e+03	1.13130e+03
449	3.18270e+03	1.13130e+03
450	3.20870e+03	1.13130e+03
451	3.23470e+03	1.13130e+03
452	3.26070e+03	1.13130e+03
453	3.28670e+03	1.13130e+03
454	3.31270e+03	1.13130e+03
455	3.33870e+03	1.13130e+03
456	3.36470e+03	1.13130e+03
457	2.74190e+03	1.12980e+03
458	2.86260e+03	1.12340e+03
459	3.06580e+03	1.09800e+03
460	3.03400e+03	1.09170e+03
461	2.87530e+03	1.07900e+03
462	2.79270e+03	1.04090e+03
463	2.90070e+03	1.02820e+03
464	2.83720e+03	1.02180e+03
465	2.94510e+03	1.01550e+03
466	2.86260e+03	1.00910e+03
467	2.93880e+03	8.31300e+02
468	3.07210e+03	9.32900e+02
469	3.05940e+03	9.52000e+02
470	3.03400e+03	9.64700e+02
471	3.06580e+03	9.71000e+02
472	3.09120e+03	9.90100e+02
473	3.20550e+03	9.83700e+02
474	3.40870e+03	8.75800e+02
475	3.45950e+03	9.20200e+02
476	3.51030e+03	1.01550e+03
477	3.36420e+03	1.01550e+03
478	3.38330e+03	1.02820e+03
479	3.49760e+03	1.02820e+03
480	3.39600e+03	1.05360e+03
481	3.29440e+03	1.05360e+03
482	3.51660e+03	1.07260e+03
483	3.21820e+03	1.09800e+03
484	3.56740e+03	1.10440e+03
485	3.55470e+03	1.12340e+03
486	3.39600e+03	1.12340e+03
487	3.54840e+03	1.14250e+03
488	3.52930e+03	1.15520e+03
489	3.40870e+03	1.16150e+03
490	3.47220e+03	1.17420e+03
491	3.69440e+03	1.30120e+03
492	3.74520e+03	1.27580e+03
493	3.74520e+03	1.02180e+03
ITEMS SECTION	(INDEX, PROFIT, WEIGHT, ASSIGNED NODE NUMBER): 
1	119	1	2
2	187	896	3
3	997	367	4
4	22	690	5
5	347	613	6
6	522	874	7
7	730	122	8
8	705	486	9
9	232	823	10
10	554	463	11
11	675	589	12
12	970	325	13
13	407	1000	14
14	276	776	15
15	331	123	16
16	361	356	17
17	798	305	18
18	427	47	19
19	439	645	20
20	91	139	21
21	650	247	22
22	10	211	23
23	838	100	24
24	725	627	25
25	843	760	26
26	137	776	27
27	977	475	28
28	718	937	29
29	99	101	30
30	609	281	31
31	819	751	32
32	97	530	33
33	975	240	34
34	226	248	35
35	241	768	36
36	584	31	37
37	348	613	38
38	475	881	39
39	178	367	40
40	641	712	41
41	898	410	42
42	250	157	43
43	391	824	44
44	101	242	45
45	636	472	46
46	87	722	47
47	652	775	48
48	867	371	49
49	54	337	50
50	509	885	51
51	989	204	52
52	129	594	53
53	597	226	54
54	513	226	55
55	201	921	56
56	227	537	57
57	82	112	58
58	296	959	59
59	802	392	60
60	537	709	61
61	943	940	62
62	997	943	63
63	642	79	64
64	205	922	65
65	551	361	66
66	904	947	67
67	400	861	68
68	250	937	69
69	586	754	70
70	631	872	71
71	752	636	72
72	510	459	73
73	542	390	74
74	576	141	75
75	550	111	76
76	504	588	77
77	702	6	78
78	20	155	79
79	179	723	80
80	770	723	81
81	95	667	82
82	598	829	83
83	885	487	84
84	239	590	85
85	37	370	86
86	898	823	87
87	923	173	88
88	261	56	89
89	786	977	90
90	46	681	91
91	438	689	92
92	116	933	93
93	503	809	94
94	603	587	95
95	194	686	96
96	341	466	97
97	545	356	98
98	52	784	99
99	810	862	100
100	260	223	101
101	197	541	102
102	213	61	103
103	462	416	104
104	62	62	105
105	203	205	106
106	269	152	107
107	160	913	108
108	747	267	109
109	174	249	110
110	700	187	111
111	114	174	112
112	412	939	113
113	905	519	114
114	109	56	115
115	369	381	116
116	525	551	117
117	987	128	118
118	660	812	119
119	149	753	120
120	764	544	121
121	396	684	122
122	905	830	123
123	30	725	124
124	384	330	125
125	981	115	126
126	483	38	127
127	176	445	128
128	570	619	129
129	891	648	130
130	446	896	131
131	567	658	132
132	646	306	133
133	229	806	134
134	893	800	135
135	723	612	136
136	771	354	137
137	329	300	138
138	279	174	139
139	253	751	140
140	262	126	141
141	802	603	142
142	861	665	143
143	127	209	144
144	131	308	145
145	460	308	146
146	290	677	147
147	296	863	148
148	172	292	149
149	158	444	150
150	241	295	151
151	301	413	152
152	958	72	153
153	694	321	154
154	594	981	155
155	145	797	156
156	819	507	157
157	672	715	158
158	638	512	159
159	645	892	160
160	915	76	161
161	879	22	162
162	14	643	163
163	975	866	164
164	185	74	165
165	466	508	166
166	511	243	167
167	767	776	168
168	579	326	169
169	496	694	170
170	119	662	171
171	829	17	172
172	858	654	173
173	547	129	174
174	801	662	175
175	28	123	176
176	269	182	177
177	113	554	178
178	293	421	179
179	410	685	180
180	850	470	181
181	237	77	182
182	552	264	183
183	117	624	184
184	45	961	185
185	42	55	186
186	722	254	187
187	710	880	188
188	110	921	189
189	800	809	190
190	618	680	191
191	129	554	192
192	887	62	193
193	692	573	194
194	604	568	195
195	35	37	196
196	963	910	197
197	108	632	198
198	411	211	199
199	426	67	200
200	104	763	201
201	208	568	202
202	542	681	203
203	248	814	204
204	237	514	205
205	922	326	206
206	678	41	207
207	392	909	208
208	516	192	209
209	422	59	210
210	582	352	211
211	327	678	212
212	97	885	213
213	378	596	214
214	362	400	215
215	124	411	216
216	376	746	217
217	167	535	218
218	680	82	219
219	679	399	220
220	330	412	221
221	613	636	222
222	345	983	223
223	181	360	224
224	576	120	225
225	698	870	226
226	312	808	227
227	122	4	228
228	158	391	229
229	476	810	230
230	873	819	231
231	477	958	232
232	857	209	233
233	681	717	234
234	3	359	235
235	167	895	236
236	337	419	237
237	134	504	238
238	198	588	239
239	219	719	240
240	151	323	241
241	717	341	242
242	181	965	243
243	39	859	244
244	191	456	245
245	652	760	246
246	293	135	247
247	90	390	248
248	319	780	249
249	516	496	250
250	156	1	251
251	11	906	252
252	526	171	253
253	335	437	254
254	74	164	255
255	968	142	256
256	701	876	257
257	409	265	258
258	722	762	259
259	356	319	260
260	833	780	261
261	512	41	262
262	977	33	263
263	782	720	264
264	974	887	265
265	116	907	266
266	334	551	267
267	400	732	268
268	909	969	269
269	255	679	270
270	32	228	271
271	222	168	272
272	150	654	273
273	100	48	274
274	611	549	275
275	851	260	276
276	766	112	277
277	771	450	278
278	386	925	279
279	791	240	280
280	850	375	281
281	635	875	282
282	317	299	283
283	50	969	284
284	426	215	285
285	791	435	286
286	93	648	287
287	185	515	288
288	582	351	289
289	2	582	290
290	411	32	291
291	992	901	292
292	188	902	293
293	962	494	294
294	620	766	295
295	927	602	296
296	559	494	297
297	711	147	298
298	271	418	299
299	37	628	300
300	497	219	301
301	892	837	302
302	676	340	303
303	63	441	304
304	17	315	305
305	781	109	306
306	958	343	307
307	985	616	308
308	509	532	309
309	608	522	310
310	274	897	311
311	819	514	312
312	353	986	313
313	932	888	314
314	446	759	315
315	981	323	316
316	742	176	317
317	883	919	318
318	978	67	319
319	290	503	320
320	260	556	321
321	155	716	322
322	713	319	323
323	80	471	324
324	479	517	325
325	49	105	326
326	88	153	327
327	182	140	328
328	645	886	329
329	764	692	330
330	950	319	331
331	421	560	332
332	141	642	333
333	184	696	334
334	698	258	335
335	879	250	336
336	9	639	337
337	15	372	338
338	992	132	339
339	883	856	340
340	188	453	341
341	89	503	342
342	916	539	343
343	934	819	344
344	333	126	345
345	877	430	346
346	532	598	347
347	434	696	348
348	458	597	349
349	637	697	350
350	649	52	351
351	290	652	352
352	45	625	353
353	638	91	354
354	406	546	355
355	324	317	356
356	146	313	357
357	181	89	358
358	367	283	359
359	501	917	360
360	950	806	361
361	802	912	362
362	963	511	363
363	144	168	364
364	121	758	365
365	584	392	366
366	418	646	367
367	879	114	368
368	788	5	369
369	906	989	370
370	352	228	371
371	279	131	372
372	588	699	373
373	951	386	374
374	599	229	375
375	752	621	376
376	740	371	377
377	767	574	378
378	848	495	379
379	475	674	380
380	662	255	381
381	612	352	382
382	858	588	383
383	929	176	384
384	467	935	385
385	25	325	386
386	593	167	387
387	858	550	388
388	557	457	389
389	806	478	390
390	776	892	391
391	179	942	392
392	428	991	393
393	857	988	394
394	30	866	395
395	206	123	396
396	189	86	397
397	741	70	398
398	37	186	399
399	446	314	400
400	828	163	401
401	63	119	402
402	246	774	403
403	383	74	404
404	115	661	405
405	163	386	406
406	853	741	407
407	458	541	408
408	160	152	409
409	227	143	410
410	370	131	411
411	918	47	412
412	955	574	413
413	416	229	414
414	366	275	415
415	176	787	416
416	588	661	417
417	462	320	418
418	562	815	419
419	643	699	420
420	17	709	421
421	884	458	422
422	155	323	423
423	560	286	424
424	141	721	425
425	185	907	426
426	528	743	427
427	775	185	428
428	898	843	429
429	872	794	430
430	433	524	431
431	916	233	432
432	888	841	433
433	740	491	434
434	410	427	435
435	482	893	436
436	42	396	437
437	684	25	438
438	917	547	439
439	130	638	440
440	904	590	441
441	199	90	442
442	763	506	443
443	253	615	444
444	399	65	445
445	185	920	446
446	659	968	447
447	877	839	448
448	834	828	449
449	204	52	450
450	201	145	451
451	416	491	452
452	572	263	453
453	623	723	454
454	680	993	455
455	228	935	456
456	987	859	457
457	602	218	458
458	688	535	459
459	228	156	460
460	246	364	461
461	935	315	462
462	472	380	463
463	449	80	464
464	295	17	465
465	914	984	466
466	628	427	467
467	240	675	468
468	106	336	469
469	530	244	470
470	535	672	471
471	226	582	472
472	836	52	473
473	37	487	474
474	738	355	475
475	783	547	476
476	572	736	477
477	87	256	478
478	251	108	479
479	962	153	480
480	836	691	481
481	555	786	482
482	678	654	483
483	904	975	484
484	904	972	485
485	424	585	486
486	871	229	487
487	536	654	488
488	749	469	489
489	436	20	490
490	949	770	491
491	731	162	492
492	539	90	493
